p edge 114 674
e 1 12
e 1 23
e 1 27
e 1 28
e 1 42
e 1 56
e 1 57
e 1 59
e 1 68
e 1 73
e 1 74
e 1 94
e 1 111
e 2 18
e 2 34
e 2 35
e 2 65
e 2 68
e 2 73
e 2 79
e 2 85
e 2 88
e 2 95
e 2 106
e 2 107
e 3 27
e 3 36
e 3 39
e 3 75
e 3 82
e 3 91
e 3 95
e 3 99
e 3 103
e 4 7
e 4 26
e 4 31
e 4 32
e 4 38
e 4 47
e 4 72
e 4 75
e 4 82
e 4 84
e 4 88
e 4 89
e 4 98
e 5 24
e 5 44
e 5 54
e 5 55
e 5 61
e 5 72
e 5 86
e 5 92
e 6 18
e 6 26
e 6 32
e 6 40
e 6 46
e 6 51
e 6 54
e 6 83
e 6 89
e 6 96
e 6 102
e 6 110
e 7 16
e 7 26
e 7 36
e 7 41
e 7 45
e 7 49
e 7 75
e 7 81
e 7 93
e 7 97
e 7 98
e 7 105
e 7 109
e 8 22
e 8 28
e 8 31
e 8 36
e 8 40
e 8 41
e 8 47
e 8 51
e 8 64
e 8 65
e 8 68
e 8 78
e 8 82
e 8 92
e 8 110
e 8 112
e 9 27
e 9 42
e 9 45
e 9 56
e 9 72
e 9 77
e 9 86
e 9 97
e 9 108
e 9 112
e 9 113
e 10 17
e 10 22
e 10 23
e 10 26
e 10 27
e 10 38
e 10 40
e 10 42
e 10 60
e 10 70
e 10 75
e 10 87
e 10 92
e 10 103
e 11 20
e 11 30
e 11 31
e 11 56
e 11 79
e 11 87
e 11 92
e 11 112
e 12 40
e 12 42
e 12 43
e 12 46
e 12 48
e 12 50
e 12 54
e 12 77
e 12 79
e 12 85
e 12 95
e 12 96
e 12 105
e 12 106
e 12 108
e 13 15
e 13 24
e 13 39
e 13 57
e 13 59
e 13 90
e 13 101
e 13 105
e 13 109
e 14 31
e 14 44
e 14 48
e 14 61
e 14 62
e 14 76
e 14 98
e 14 103
e 14 105
e 15 22
e 15 30
e 15 34
e 15 41
e 15 54
e 15 56
e 15 61
e 15 63
e 15 85
e 15 110
e 16 21
e 16 44
e 16 60
e 16 74
e 16 79
e 16 86
e 16 95
e 17 28
e 17 37
e 17 39
e 17 62
e 17 63
e 17 68
e 17 73
e 17 94
e 18 23
e 18 27
e 18 44
e 18 45
e 18 47
e 18 56
e 18 66
e 18 94
e 18 101
e 18 109
e 19 41
e 19 42
e 19 47
e 19 57
e 19 60
e 19 61
e 19 63
e 19 68
e 19 82
e 19 89
e 19 91
e 19 96
e 19 97
e 19 100
e 19 102
e 19 104
e 19 110
e 20 35
e 20 36
e 20 55
e 20 58
e 20 91
e 20 92
e 20 96
e 20 104
e 21 29
e 21 39
e 21 44
e 21 55
e 21 57
e 21 102
e 21 105
e 21 106
e 22 24
e 22 33
e 22 34
e 22 38
e 22 49
e 22 60
e 22 63
e 22 66
e 22 70
e 22 78
e 22 83
e 22 90
e 22 113
e 23 37
e 23 63
e 23 74
e 23 93
e 23 107
e 23 108
e 24 47
e 24 55
e 24 81
e 24 92
e 24 96
e 24 107
e 25 30
e 25 42
e 25 43
e 25 45
e 25 70
e 25 71
e 25 78
e 25 81
e 26 34
e 26 83
e 26 84
e 26 87
e 26 97
e 26 105
e 27 29
e 27 36
e 27 37
e 27 43
e 27 58
e 27 68
e 27 94
e 27 105
e 27 113
e 28 33
e 28 35
e 28 39
e 28 47
e 28 48
e 28 80
e 28 81
e 28 95
e 29 40
e 29 41
e 29 52
e 29 58
e 29 65
e 29 66
e 29 87
e 29 100
e 29 101
e 29 107
e 29 109
e 30 34
e 30 42
e 30 56
e 30 94
e 31 41
e 31 50
e 31 52
e 31 77
e 31 85
e 31 88
e 31 102
e 31 108
e 31 111
e 32 33
e 32 36
e 32 40
e 32 42
e 32 45
e 32 58
e 32 61
e 32 64
e 32 65
e 32 75
e 32 89
e 32 108
e 33 41
e 33 47
e 33 48
e 33 67
e 33 68
e 33 74
e 33 75
e 33 78
e 33 86
e 33 93
e 33 97
e 33 101
e 33 103
e 34 51
e 34 56
e 34 75
e 35 51
e 35 52
e 35 65
e 35 72
e 35 75
e 35 76
e 35 81
e 35 91
e 35 96
e 36 47
e 36 86
e 36 90
e 36 94
e 36 103
e 36 105
e 37 70
e 37 95
e 37 107
e 37 111
e 38 45
e 38 52
e 38 53
e 38 77
e 38 80
e 38 96
e 39 40
e 39 54
e 39 57
e 39 62
e 39 67
e 39 68
e 39 70
e 39 71
e 39 74
e 39 79
e 39 85
e 39 87
e 39 92
e 39 94
e 39 114
e 40 77
e 40 92
e 40 96
e 40 107
e 41 47
e 41 55
e 41 109
e 41 113
e 42 44
e 42 55
e 42 62
e 42 83
e 42 87
e 42 90
e 42 105
e 43 47
e 43 54
e 43 59
e 43 68
e 43 69
e 43 77
e 43 85
e 43 86
e 43 90
e 43 101
e 43 104
e 43 110
e 44 51
e 44 58
e 44 65
e 44 80
e 44 86
e 44 90
e 44 102
e 44 109
e 45 49
e 45 60
e 45 61
e 45 65
e 45 70
e 45 74
e 45 86
e 45 97
e 45 112
e 46 57
e 46 65
e 46 69
e 46 73
e 46 77
e 46 78
e 46 82
e 46 89
e 47 83
e 47 112
e 48 52
e 48 58
e 48 66
e 48 67
e 48 72
e 48 74
e 48 83
e 48 89
e 48 109
e 49 56
e 49 59
e 49 60
e 49 61
e 49 62
e 49 83
e 49 89
e 49 94
e 49 97
e 49 102
e 49 104
e 49 111
e 49 112
e 50 84
e 50 85
e 50 86
e 50 96
e 50 112
e 51 53
e 51 55
e 51 57
e 51 69
e 51 70
e 51 77
e 51 81
e 51 89
e 51 111
e 51 114
e 52 59
e 52 63
e 52 71
e 52 83
e 52 93
e 52 98
e 52 108
e 53 65
e 53 66
e 53 72
e 53 78
e 53 83
e 53 110
e 54 63
e 54 72
e 54 77
e 54 78
e 54 84
e 54 98
e 55 56
e 55 61
e 55 62
e 55 68
e 55 72
e 55 81
e 55 85
e 55 95
e 55 101
e 55 110
e 55 112
e 56 88
e 56 94
e 56 105
e 56 108
e 57 59
e 57 63
e 57 68
e 57 69
e 57 106
e 58 61
e 58 72
e 58 85
e 58 89
e 58 91
e 58 94
e 58 96
e 58 109
e 59 66
e 59 74
e 59 80
e 59 85
e 59 88
e 59 90
e 59 103
e 60 64
e 60 68
e 60 83
e 60 87
e 60 88
e 60 90
e 60 103
e 61 70
e 61 90
e 62 81
e 62 107
e 62 111
e 63 65
e 63 73
e 63 78
e 63 93
e 63 103
e 63 105
e 64 76
e 65 67
e 65 70
e 65 77
e 65 90
e 65 103
e 65 111
e 66 70
e 66 74
e 66 92
e 66 97
e 66 102
e 66 105
e 66 111
e 66 113
e 67 76
e 67 84
e 67 109
e 68 69
e 68 72
e 68 79
e 68 81
e 68 89
e 68 93
e 68 98
e 68 99
e 68 113
e 68 114
e 69 81
e 69 84
e 69 104
e 69 110
e 70 91
e 70 92
e 71 77
e 71 79
e 71 114
e 72 89
e 72 90
e 72 91
e 72 92
e 72 94
e 72 110
e 72 111
e 73 80
e 73 82
e 73 83
e 73 84
e 73 88
e 73 89
e 73 92
e 73 96
e 73 97
e 73 102
e 74 81
e 75 89
e 75 92
e 76 106
e 77 85
e 77 86
e 77 93
e 77 97
e 77 105
e 78 83
e 78 89
e 78 95
e 78 97
e 78 98
e 78 104
e 79 96
e 79 98
e 79 103
e 80 83
e 80 114
e 81 83
e 81 97
e 81 102
e 81 103
e 81 109
e 81 112
e 82 83
e 82 87
e 82 102
e 83 91
e 83 96
e 83 98
e 84 101
e 84 102
e 85 94
e 85 97
e 85 101
e 86 99
e 86 100
e 86 112
e 87 92
e 87 108
e 88 111
e 90 98
e 90 111
e 91 95
e 91 97
e 91 100
e 91 103
e 91 108
e 92 107
e 93 109
e 93 112
e 93 114
e 95 108
e 96 110
e 96 112
e 98 102
e 98 108
e 98 110
e 99 102
e 99 113
e 100 107
e 100 110
e 100 111
e 100 114
e 101 105
e 101 112
e 101 114
e 102 113
e 103 108
e 103 113
e 103 114
e 104 105
e 105 114
e 106 107
e 109 114
e 110 111
e 110 114
